[on. 05. april 11:03:06 +0200 2023]  ./input/alternate_g_np_100/100-7-3.gcc
Set parameter Username
Academic license - for non-commercial use only - expires 2024-03-28
Set parameter TimeLimit to value 1800
Set parameter PreCrush to value 1
Set parameter LazyConstraints to value 1
Gurobi Optimizer version 10.0.1 build v10.0.1rc0 (linux64)

CPU model: AMD Ryzen 9 5950X 16-Core Processor, instruction set [SSE2|AVX|AVX2]
Thread count: 16 physical cores, 32 logical processors, using up to 32 threads

Optimize a model with 106 rows, 700 columns and 1900 nonzeros
Model fingerprint: 0xf4ac8ecd
Variable types: 0 continuous, 700 integer (700 binary)
Coefficient statistics:
  Matrix range     [1e+00, 1e+00]
  Objective range  [1e+00, 1e+02]
  Bounds range     [1e+00, 1e+00]
  RHS range        [1e+00, 1e+00]
Presolve added 5 rows and 5 columns
Presolve time: 0.00s
Presolved: 111 rows, 705 columns, 1415 nonzeros
Variable types: 0 continuous, 705 integer (700 binary)
Found heuristic solution: objective 2712.0000000

Root relaxation: objective 5.304000e+03, 1 iterations, 0.00 seconds (0.00 work units)

    Nodes    |    Current Node    |     Objective Bounds      |     Work
 Expl Unexpl |  Obj  Depth IntInf | Incumbent    BestBd   Gap | It/Node Time

     0     0 5304.00000    0    - 2712.00000 5304.00000  95.6%     -    0s
     0     0 5304.00000    0    - 2712.00000 5304.00000  95.6%     -    0s
     0     0 5304.00000    0    - 2712.00000 5304.00000  95.6%     -    0s
     0     0 5304.00000    0    - 2712.00000 5304.00000  95.6%     -    0s
*    0     0               0    5304.0000000 5304.00000  0.00%     -    0s

Cutting planes:
  Lazy constraints: 11

Explored 1 nodes (6 simplex iterations) in 0.00 seconds (0.00 work units)
Thread count was 32 (of 32 available processors)

Solution count 2: 5304 2712 

Optimal solution found (tolerance 1.00e-04)
Best objective 5.304000000000e+03, best bound 5.304000000000e+03, gap 0.0000%

User-callback calls 120, time in user-callback 0.00 sec
Minimal separator inequalities added: 15
Indegree inequalities added: 0
Passed solution check
[on. 05. april 11:03:06 +0200 2023]  done

